c ind 159 158 157 156 155 154 153 152 151 150 149 148 147 146 145 144 143 142 141 140 139 138 137 136 135 134 133 132 131 130 129 128  0
c ind 191 190 189 188 187 186 185 184 183 182 181 180 179 178 177 176 175 174 173 172 171 170 169 168 167 166 165 164 163 162 161 160  0
c ind 33 32 31 30 29 28 27 26 25 24 23 22 21 20 19 18 17 16 15 14 13 12 11 10 9 8 7 6 5 4 3 2  0
c ind 96 95 94 93 92 91 90 89 88 87 86 85 84 83 82 81 80 79 78 77 76 75 74 73 72 71 70 69 68 67 66 65  0
c ind 223 222 221 220 219 218 217 216 215 214 213 212 211 210 209 208 207 206 205 204 203 202 201 200 199 198 197 196 195 194 193 192  0
p cnf 1268 2249
1 0
-64 0
-65 0
-66 0
-67 0
-68 0
-69 0
-70 0
-71 0
-72 0
-73 0
-74 0
-75 0
-76 0
-77 0
-78 0
-79 0
-80 0
-81 0
-82 0
-83 0
-84 0
-85 0
-86 0
-87 0
-88 0
-89 0
-90 0
-91 0
-92 0
-93 0
-94 0
-95 0
-96 0
97 0
98 0
99 0
100 0
101 0
102 0
103 0
104 0
105 0
106 0
107 0
108 0
109 0
110 0
111 0
112 0
113 0
114 0
115 0
116 0
117 0
118 0
119 0
120 0
121 0
122 0
123 0
124 0
125 0
126 0
127 0
-128 0
-129 0
-130 0
-131 0
-132 0
-133 0
-134 0
-135 0
-136 0
-137 0
-138 0
-139 0
-140 0
-141 0
-142 0
-143 0
-144 0
-145 0
-146 0
-147 0
-148 0
-149 0
-150 0
-151 0
-152 0
-153 0
-154 0
-155 0
-156 0
-157 0
-158 0
-159 0
-192 0
-193 0
-194 0
-195 0
-196 0
-197 0
-198 0
-199 0
-200 0
-201 0
-202 0
-203 0
-204 0
-205 0
-206 0
-207 0
-208 0
-209 0
-210 0
-211 0
-212 0
-213 0
-214 0
-215 0
-216 0
-217 0
-218 0
-219 0
-220 0
-221 0
-222 0
-223 0
224 0
225 0
226 0
227 0
228 0
229 0
230 0
231 0
232 0
233 0
234 0
235 0
236 0
237 0
238 0
239 0
240 0
241 0
242 0
243 0
244 0
245 0
246 0
247 0
248 0
249 0
250 0
251 0
252 0
253 0
254 0
255 0
256 0
257 0
258 0
259 0
260 0
261 0
262 0
263 0
264 0
265 0
266 0
267 0
268 0
269 0
270 0
271 0
272 0
273 0
274 0
275 0
276 0
277 0
278 0
279 0
280 0
281 0
282 0
283 0
284 0
-285 0
-286 0
287 0
-288 0
-289 0
290 0
-291 0
-292 0
293 0
-294 0
-295 0
296 0
-297 0
-298 0
299 0
-300 0
-301 0
302 0
-303 0
-304 0
305 0
-306 0
-307 0
308 0
-309 0
-310 0
311 0
-312 0
-313 0
314 0
-315 0
-316 0
317 0
-318 0
-319 0
320 0
-321 0
-322 0
323 0
-324 0
-325 0
326 0
-327 0
-328 0
329 0
-330 0
-331 0
332 0
-333 0
-334 0
335 0
-336 0
-337 0
338 0
-339 0
-340 0
341 0
-342 0
-343 0
344 0
-345 0
-346 0
347 0
-348 0
-349 0
350 0
-351 0
-352 0
353 0
-354 0
-355 0
356 0
-357 0
-358 0
359 0
-360 0
-361 0
362 0
-363 0
-364 0
365 0
-366 0
-367 0
368 0
-369 0
-370 0
371 0
-372 0
-373 0
374 0
-375 0
-376 0
377 0
-378 0
379 0
-380 0
381 0
-382 0
383 0
-384 0
385 0
-386 0
387 0
-388 0
389 0
-390 0
391 0
-392 0
393 0
-394 0
395 0
-396 0
397 0
-398 0
399 0
-400 0
401 0
-402 0
403 0
-404 0
405 0
-406 0
407 0
-408 0
409 0
-410 0
411 0
-412 0
413 0
-414 0
415 0
-416 0
417 0
-418 0
419 0
-420 0
421 0
-422 0
423 0
-424 0
425 0
-426 0
427 0
-428 0
429 0
-430 0
431 0
-432 0
433 0
-434 0
435 0
436 0
437 0
-438 0
439 0
-440 0
441 0
-442 0
443 0
-444 0
445 0
-446 0
447 0
-448 0
449 0
-450 0
451 0
-452 0
453 0
-454 0
455 0
-456 0
457 0
-458 0
459 0
-460 0
461 0
-462 0
463 0
-464 0
465 0
-466 0
467 0
-468 0
469 0
-470 0
471 0
-472 0
473 0
-474 0
475 0
-476 0
477 0
-478 0
479 0
-480 0
481 0
-482 0
483 0
-484 0
485 0
-486 0
487 0
-488 0
489 0
-490 0
491 0
-492 0
493 0
-494 0
495 0
-496 0
497 0
-498 0
499 0
-500 0
-503 0
-506 0
-509 0
-512 0
-515 0
-518 0
-521 0
-524 0
-527 0
-530 0
-533 0
-536 0
-539 0
-542 0
-545 0
-548 0
-551 0
-554 0
-557 0
-560 0
-563 0
-566 0
-569 0
-572 0
-575 0
-578 0
-581 0
-584 0
-587 0
-713 0
-931 0
-934 0
-937 0
-940 0
-943 0
-946 0
-949 0
-952 0
-955 0
-958 0
-961 0
-964 0
-967 0
-970 0
-973 0
-976 0
-979 0
-982 0
-985 0
-988 0
-991 0
-994 0
-997 0
-1000 0
-1003 0
-1006 0
-1009 0
-1012 0
-1015 0
-1018 0
-1020 0
-1021 0
1022 0
-1023 0
1024 0
-1025 0
1026 0
-1027 0
1028 0
-1029 0
1030 0
-1031 0
1032 0
-1033 0
1034 0
-1035 0
1036 0
-1037 0
1038 0
-1039 0
1040 0
-1041 0
1042 0
-1043 0
1044 0
-1045 0
1046 0
-1047 0
1048 0
-1049 0
1050 0
-1051 0
1052 0
-1053 0
1054 0
-1055 0
1056 0
-1057 0
1058 0
-1059 0
1060 0
-1061 0
1062 0
-1063 0
1064 0
-1065 0
1066 0
-1067 0
1068 0
-1069 0
1070 0
-1071 0
1072 0
-1073 0
1074 0
-1075 0
1076 0
-1077 0
1078 0
-1079 0
1080 0
-1175 0
-1206 0
1207 0
1208 0
1209 0
1210 0
1211 0
1212 0
1213 0
1214 0
1215 0
1216 0
1217 0
1218 0
1219 0
1220 0
1221 0
1222 0
1223 0
1224 0
1225 0
1226 0
1227 0
1228 0
1229 0
1230 0
1231 0
1232 0
1233 0
1234 0
1235 0
1236 0
1237 0
1238 0
1239 0
1240 0
1241 0
1242 0
1243 0
1244 0
1245 0
1246 0
1247 0
1248 0
1249 0
1250 0
1251 0
1252 0
1253 0
1254 0
1255 0
1256 0
1257 0
1258 0
1259 0
1260 0
1261 0
1262 0
1263 0
1264 0
1265 0
1266 0
1267 0
1268 0
-2 -34 0
-2 -651 0
2 651 0
2 3 34 0
-3 -34 0
-3 501 0
3 -501 0
-4 -35 0
-4 504 0
4 -504 0
4 -34 35 0
-5 -36 0
-5 507 0
5 -507 0
5 -35 36 0
-6 -37 0
-6 510 0
6 -510 0
6 -36 37 0
-7 -38 0
-7 513 0
7 -513 0
7 -37 38 0
-8 -39 0
-8 516 0
8 -516 0
8 -38 39 0
-9 -40 0
-9 519 0
9 -519 0
9 -39 40 0
-10 -41 0
-10 522 0
10 -522 0
10 -40 41 0
-11 -42 0
-11 525 0
11 -525 0
11 -41 42 0
-12 -43 0
-12 528 0
12 -528 0
12 -42 43 0
-13 -44 0
-13 531 0
13 -531 0
13 -43 44 0
-14 -45 0
-14 534 0
14 -534 0
14 -44 45 0
-15 -46 0
-15 537 0
15 -537 0
15 -45 46 0
-16 -47 0
-16 540 0
16 -540 0
16 -46 47 0
-17 -48 0
-17 543 0
17 -543 0
17 -47 48 0
-18 -49 0
-18 546 0
18 -546 0
18 -48 49 0
-19 -50 0
-19 549 0
19 -549 0
19 -49 50 0
-20 -51 0
-20 552 0
20 -552 0
20 -50 51 0
-21 -52 0
-21 555 0
21 -555 0
21 -51 52 0
-22 -53 0
-22 558 0
22 -558 0
22 -52 53 0
-23 -54 0
-23 561 0
23 -561 0
23 -53 54 0
-24 -55 0
-24 564 0
24 -564 0
24 -54 55 0
-25 -56 0
-25 567 0
25 -567 0
25 -55 56 0
-26 -57 0
-26 570 0
26 -570 0
26 -56 57 0
-27 -58 0
-27 573 0
27 -573 0
27 -57 58 0
-28 -59 0
-28 576 0
28 -576 0
28 -58 59 0
-29 -60 0
-29 579 0
29 -579 0
29 -59 60 0
-30 -61 0
-30 582 0
30 -582 0
30 -60 61 0
-31 -62 0
-31 585 0
31 -585 0
31 -61 62 0
-32 -63 0
-32 588 0
32 -588 0
32 -62 63 0
-33 590 0
33 -63 0
33 -590 0
34 -35 0
35 -36 0
36 -37 0
37 -38 0
38 -39 0
39 -40 0
40 -41 0
41 -42 0
42 -43 0
43 -44 0
44 -45 0
45 -46 0
46 -47 0
47 -48 0
48 -49 0
49 -50 0
50 -51 0
51 -52 0
52 -53 0
53 -54 0
54 -55 0
55 -56 0
56 -57 0
57 -58 0
58 -59 0
59 -60 0
60 -61 0
61 -62 0
62 -63 0
-160 -1176 0
-160 -866 -652 0
-160 866 652 0
160 -866 652 0
160 866 -652 0
160 161 1176 0
-161 -715 0
-161 -1176 0
-161 -654 716 0
161 -716 0
161 654 715 0
-162 -718 0
-162 -1177 0
-162 -656 719 0
162 -719 0
162 656 718 0
162 -1176 1177 0
-163 -721 0
-163 -1178 0
-163 -658 722 0
163 -722 0
163 658 721 0
163 -1177 1178 0
-164 -724 0
-164 -1179 0
-164 -660 725 0
164 -725 0
164 660 724 0
164 -1178 1179 0
-165 -727 0
-165 -1180 0
-165 -662 728 0
165 -728 0
165 662 727 0
165 -1179 1180 0
-166 -730 0
-166 -1181 0
-166 -664 731 0
166 -731 0
166 664 730 0
166 -1180 1181 0
-167 -733 0
-167 -1182 0
-167 -666 734 0
167 -734 0
167 666 733 0
167 -1181 1182 0
-168 -736 0
-168 -1183 0
-168 -668 737 0
168 -737 0
168 668 736 0
168 -1182 1183 0
-169 -739 0
-169 -1184 0
-169 -670 740 0
169 -740 0
169 670 739 0
169 -1183 1184 0
-170 -742 0
-170 -1185 0
-170 -672 743 0
170 -743 0
170 672 742 0
170 -1184 1185 0
-171 -745 0
-171 -1186 0
-171 -674 746 0
171 -746 0
171 674 745 0
171 -1185 1186 0
-172 -748 0
-172 -1187 0
-172 -676 749 0
172 -749 0
172 676 748 0
172 -1186 1187 0
-173 -751 0
-173 -1188 0
-173 -678 752 0
173 -752 0
173 678 751 0
173 -1187 1188 0
-174 -754 0
-174 -1189 0
-174 -680 755 0
174 -755 0
174 680 754 0
174 -1188 1189 0
-175 -757 0
-175 -1190 0
-175 -682 758 0
175 -758 0
175 682 757 0
175 -1189 1190 0
-176 -760 0
-176 -1191 0
-176 -684 761 0
176 -761 0
176 684 760 0
176 -1190 1191 0
-177 -763 0
-177 -1192 0
-177 -686 764 0
177 -764 0
177 686 763 0
177 -1191 1192 0
-178 -766 0
-178 -1193 0
-178 -688 767 0
178 -767 0
178 688 766 0
178 -1192 1193 0
-179 -769 0
-179 -1194 0
-179 -690 770 0
179 -770 0
179 690 769 0
179 -1193 1194 0
-180 -772 0
-180 -1195 0
-180 -692 773 0
180 -773 0
180 692 772 0
180 -1194 1195 0
-181 -775 0
-181 -1196 0
-181 -694 776 0
181 -776 0
181 694 775 0
181 -1195 1196 0
-182 -778 0
-182 -1197 0
-182 -696 779 0
182 -779 0
182 696 778 0
182 -1196 1197 0
-183 -781 0
-183 -1198 0
-183 -698 782 0
183 -782 0
183 698 781 0
183 -1197 1198 0
-184 -784 0
-184 -1199 0
-184 -700 785 0
184 -785 0
184 700 784 0
184 -1198 1199 0
-185 -787 0
-185 -1200 0
-185 -702 788 0
185 -788 0
185 702 787 0
185 -1199 1200 0
-186 -790 0
-186 -1201 0
-186 -704 791 0
186 -791 0
186 704 790 0
186 -1200 1201 0
-187 -793 0
-187 -1202 0
-187 -706 794 0
187 -794 0
187 706 793 0
187 -1201 1202 0
-188 -796 0
-188 -1203 0
-188 -708 797 0
188 -797 0
188 708 796 0
188 -1202 1203 0
-189 -799 0
-189 -1204 0
-189 -710 800 0
189 -800 0
189 710 799 0
189 -1203 1204 0
-190 -802 0
-190 -1205 0
-190 -712 803 0
190 -803 0
190 712 802 0
190 -1204 1205 0
-191 -928 0
-191 -714 805 0
191 -805 0
191 -1205 0
191 714 928 0
-501 -502 0
-501 -650 0
501 502 0
501 649 650 0
-502 -653 0
-502 648 649 0
502 -649 0
502 -648 653 0
-504 -505 0
-504 -648 0
504 505 0
504 647 648 0
-505 -655 0
-505 646 647 0
505 -647 0
505 -646 655 0
-507 -508 0
-507 -646 0
507 508 0
507 645 646 0
-508 -657 0
-508 644 645 0
508 -645 0
508 -644 657 0
-510 -511 0
-510 -644 0
510 511 0
510 643 644 0
-511 -659 0
-511 642 643 0
511 -643 0
511 -642 659 0
-513 -514 0
-513 -642 0
513 514 0
513 641 642 0
-514 -661 0
-514 640 641 0
514 -641 0
514 -640 661 0
-516 -517 0
-516 -640 0
516 517 0
516 639 640 0
-517 -663 0
-517 638 639 0
517 -639 0
517 -638 663 0
-519 -520 0
-519 -638 0
519 520 0
519 637 638 0
-520 -665 0
-520 636 637 0
520 -637 0
520 -636 665 0
-522 -523 0
-522 -636 0
522 523 0
522 635 636 0
-523 -667 0
-523 634 635 0
523 -635 0
523 -634 667 0
-525 -526 0
-525 -634 0
525 526 0
525 633 634 0
-526 -669 0
-526 632 633 0
526 -633 0
526 -632 669 0
-528 -529 0
-528 -632 0
528 529 0
528 631 632 0
-529 -671 0
-529 630 631 0
529 -631 0
529 -630 671 0
-531 -532 0
-531 -630 0
531 532 0
531 629 630 0
-532 -673 0
-532 628 629 0
532 -629 0
532 -628 673 0
-534 -535 0
-534 -628 0
534 535 0
534 627 628 0
-535 -675 0
-535 626 627 0
535 -627 0
535 -626 675 0
-537 -538 0
-537 -626 0
537 538 0
537 625 626 0
-538 -677 0
-538 624 625 0
538 -625 0
538 -624 677 0
-540 -541 0
-540 -624 0
540 541 0
540 623 624 0
-541 -679 0
-541 622 623 0
541 -623 0
541 -622 679 0
-543 -544 0
-543 -622 0
543 544 0
543 621 622 0
-544 -681 0
-544 620 621 0
544 -621 0
544 -620 681 0
-546 -547 0
-546 -620 0
546 547 0
546 619 620 0
-547 -683 0
-547 618 619 0
547 -619 0
547 -618 683 0
-549 -550 0
-549 -618 0
549 550 0
549 617 618 0
-550 -685 0
-550 616 617 0
550 -617 0
550 -616 685 0
-552 -553 0
-552 -616 0
552 553 0
552 615 616 0
-553 -687 0
-553 614 615 0
553 -615 0
553 -614 687 0
-555 -556 0
-555 -614 0
555 556 0
555 613 614 0
-556 -689 0
-556 612 613 0
556 -613 0
556 -612 689 0
-558 -559 0
-558 -612 0
558 559 0
558 611 612 0
-559 -691 0
-559 610 611 0
559 -611 0
559 -610 691 0
-561 -562 0
-561 -610 0
561 562 0
561 609 610 0
-562 -693 0
-562 608 609 0
562 -609 0
562 -608 693 0
-564 -565 0
-564 -608 0
564 565 0
564 607 608 0
-565 -695 0
-565 606 607 0
565 -607 0
565 -606 695 0
-567 -568 0
-567 -606 0
567 568 0
567 605 606 0
-568 -697 0
-568 604 605 0
568 -605 0
568 -604 697 0
-570 -571 0
-570 -604 0
570 571 0
570 603 604 0
-571 -699 0
-571 602 603 0
571 -603 0
571 -602 699 0
-573 -574 0
-573 -602 0
573 574 0
573 601 602 0
-574 -701 0
-574 600 601 0
574 -601 0
574 -600 701 0
-576 -577 0
-576 -600 0
576 577 0
576 599 600 0
-577 -703 0
-577 598 599 0
577 -599 0
577 -598 703 0
-579 -580 0
-579 -598 0
579 580 0
579 597 598 0
-580 -705 0
-580 596 597 0
580 -597 0
580 -596 705 0
-582 -583 0
-582 -596 0
582 583 0
582 595 596 0
-583 -707 0
-583 594 595 0
583 -595 0
583 -594 707 0
-585 -586 0
-585 -594 0
585 586 0
585 593 594 0
-586 -709 0
-586 592 593 0
586 -593 0
586 -592 709 0
-588 -589 0
-588 -592 0
588 589 0
588 591 592 0
-589 -711 0
-589 -590 591 0
589 -591 0
589 590 711 0
-590 -711 0
-590 -714 0
590 -591 0
590 714 0
-591 -592 0
-591 -712 0
591 711 712 0
-592 -593 0
592 -709 0
-593 -594 0
-593 -710 0
593 709 710 0
-594 -595 0
594 -707 0
-595 -596 0
-595 -708 0
595 707 708 0
-596 -597 0
596 -705 0
-597 -598 0
-597 -706 0
597 705 706 0
-598 -599 0
598 -703 0
-599 -600 0
-599 -704 0
599 703 704 0
-600 -601 0
600 -701 0
-601 -602 0
-601 -702 0
601 701 702 0
-602 -603 0
602 -699 0
-603 -604 0
-603 -700 0
603 699 700 0
-604 -605 0
604 -697 0
-605 -606 0
-605 -698 0
605 697 698 0
-606 -607 0
606 -695 0
-607 -608 0
-607 -696 0
607 695 696 0
-608 -609 0
608 -693 0
-609 -610 0
-609 -694 0
609 693 694 0
-610 -611 0
610 -691 0
-611 -612 0
-611 -692 0
611 691 692 0
-612 -613 0
612 -689 0
-613 -614 0
-613 -690 0
613 689 690 0
-614 -615 0
614 -687 0
-615 -616 0
-615 -688 0
615 687 688 0
-616 -617 0
616 -685 0
-617 -618 0
-617 -686 0
617 685 686 0
-618 -619 0
618 -683 0
-619 -620 0
-619 -684 0
619 683 684 0
-620 -621 0
620 -681 0
-621 -622 0
-621 -682 0
621 681 682 0
-622 -623 0
622 -679 0
-623 -624 0
-623 -680 0
623 679 680 0
-624 -625 0
624 -677 0
-625 -626 0
-625 -678 0
625 677 678 0
-626 -627 0
626 -675 0
-627 -628 0
-627 -676 0
627 675 676 0
-628 -629 0
628 -673 0
-629 -630 0
-629 -674 0
629 673 674 0
-630 -631 0
630 -671 0
-631 -632 0
-631 -672 0
631 671 672 0
-632 -633 0
632 -669 0
-633 -634 0
-633 -670 0
633 669 670 0
-634 -635 0
634 -667 0
-635 -636 0
-635 -668 0
635 667 668 0
-636 -637 0
636 -665 0
-637 -638 0
-637 -666 0
637 665 666 0
-638 -639 0
638 -663 0
-639 -640 0
-639 -664 0
639 663 664 0
-640 -641 0
640 -661 0
-641 -642 0
-641 -662 0
641 661 662 0
-642 -643 0
642 -659 0
-643 -644 0
-643 -660 0
643 659 660 0
-644 -645 0
644 -657 0
-645 -646 0
-645 -658 0
645 657 658 0
-646 -647 0
646 -655 0
-647 -648 0
-647 -656 0
647 655 656 0
-648 -649 0
648 -653 0
-649 -650 0
-649 -654 0
649 653 654 0
-650 -652 651 0
-650 652 -651 0
650 -652 -651 0
650 652 651 0
-653 -654 0
-654 -715 0
654 -716 0
-655 -656 0
-656 -718 0
656 -719 0
-657 -658 0
-658 -721 0
658 -722 0
-659 -660 0
-660 -724 0
660 -725 0
-661 -662 0
-662 -727 0
662 -728 0
-663 -664 0
-664 -730 0
664 -731 0
-665 -666 0
-666 -733 0
666 -734 0
-667 -668 0
-668 -736 0
668 -737 0
-669 -670 0
-670 -739 0
670 -740 0
-671 -672 0
-672 -742 0
672 -743 0
-673 -674 0
-674 -745 0
674 -746 0
-675 -676 0
-676 -748 0
676 -749 0
-677 -678 0
-678 -751 0
678 -752 0
-679 -680 0
-680 -754 0
680 -755 0
-681 -682 0
-682 -757 0
682 -758 0
-683 -684 0
-684 -760 0
684 -761 0
-685 -686 0
-686 -763 0
686 -764 0
-687 -688 0
-688 -766 0
688 -767 0
-689 -690 0
-690 -769 0
690 -770 0
-691 -692 0
-692 -772 0
692 -773 0
-693 -694 0
-694 -775 0
694 -776 0
-695 -696 0
-696 -778 0
696 -779 0
-697 -698 0
-698 -781 0
698 -782 0
-699 -700 0
-700 -784 0
700 -785 0
-701 -702 0
-702 -787 0
702 -788 0
-703 -704 0
-704 -790 0
704 -791 0
-705 -706 0
-706 -793 0
706 -794 0
-707 -708 0
-708 -796 0
708 -797 0
-709 -710 0
-710 -799 0
710 -800 0
-711 -712 0
-712 -802 0
712 -803 0
-714 -928 0
714 -805 0
-715 -717 0
715 716 717 0
-716 -717 0
-716 -865 0
716 864 865 0
-717 -868 0
-717 863 864 0
717 -864 0
717 -863 868 0
-718 -720 0
718 719 720 0
-719 -720 0
-719 -863 0
719 862 863 0
-720 -870 0
-720 861 862 0
720 -862 0
720 -861 870 0
-721 -723 0
721 722 723 0
-722 -723 0
-722 -861 0
722 860 861 0
-723 -872 0
-723 859 860 0
723 -860 0
723 -859 872 0
-724 -726 0
724 725 726 0
-725 -726 0
-725 -859 0
725 858 859 0
-726 -874 0
-726 857 858 0
726 -858 0
726 -857 874 0
-727 -729 0
727 728 729 0
-728 -729 0
-728 -857 0
728 856 857 0
-729 -876 0
-729 855 856 0
729 -856 0
729 -855 876 0
-730 -732 0
730 731 732 0
-731 -732 0
-731 -855 0
731 854 855 0
-732 -878 0
-732 853 854 0
732 -854 0
732 -853 878 0
-733 -735 0
733 734 735 0
-734 -735 0
-734 -853 0
734 852 853 0
-735 -880 0
-735 851 852 0
735 -852 0
735 -851 880 0
-736 -738 0
736 737 738 0
-737 -738 0
-737 -851 0
737 850 851 0
-738 -882 0
-738 849 850 0
738 -850 0
738 -849 882 0
-739 -741 0
739 740 741 0
-740 -741 0
-740 -849 0
740 848 849 0
-741 -884 0
-741 847 848 0
741 -848 0
741 -847 884 0
-742 -744 0
742 743 744 0
-743 -744 0
-743 -847 0
743 846 847 0
-744 -886 0
-744 845 846 0
744 -846 0
744 -845 886 0
-745 -747 0
745 746 747 0
-746 -747 0
-746 -845 0
746 844 845 0
-747 -888 0
-747 843 844 0
747 -844 0
747 -843 888 0
-748 -750 0
748 749 750 0
-749 -750 0
-749 -843 0
749 842 843 0
-750 -890 0
-750 841 842 0
750 -842 0
750 -841 890 0
-751 -753 0
751 752 753 0
-752 -753 0
-752 -841 0
752 840 841 0
-753 -892 0
-753 839 840 0
753 -840 0
753 -839 892 0
-754 -756 0
754 755 756 0
-755 -756 0
-755 -839 0
755 838 839 0
-756 -894 0
-756 837 838 0
756 -838 0
756 -837 894 0
-757 -759 0
757 758 759 0
-758 -759 0
-758 -837 0
758 836 837 0
-759 -896 0
-759 835 836 0
759 -836 0
759 -835 896 0
-760 -762 0
760 761 762 0
-761 -762 0
-761 -835 0
761 834 835 0
-762 -898 0
-762 833 834 0
762 -834 0
762 -833 898 0
-763 -765 0
763 764 765 0
-764 -765 0
-764 -833 0
764 832 833 0
-765 -900 0
-765 831 832 0
765 -832 0
765 -831 900 0
-766 -768 0
766 767 768 0
-767 -768 0
-767 -831 0
767 830 831 0
-768 -902 0
-768 829 830 0
768 -830 0
768 -829 902 0
-769 -771 0
769 770 771 0
-770 -771 0
-770 -829 0
770 828 829 0
-771 -904 0
-771 827 828 0
771 -828 0
771 -827 904 0
-772 -774 0
772 773 774 0
-773 -774 0
-773 -827 0
773 826 827 0
-774 -906 0
-774 825 826 0
774 -826 0
774 -825 906 0
-775 -777 0
775 776 777 0
-776 -777 0
-776 -825 0
776 824 825 0
-777 -908 0
-777 823 824 0
777 -824 0
777 -823 908 0
-778 -780 0
778 779 780 0
-779 -780 0
-779 -823 0
779 822 823 0
-780 -910 0
-780 821 822 0
780 -822 0
780 -821 910 0
-781 -783 0
781 782 783 0
-782 -783 0
-782 -821 0
782 820 821 0
-783 -912 0
-783 819 820 0
783 -820 0
783 -819 912 0
-784 -786 0
784 785 786 0
-785 -786 0
-785 -819 0
785 818 819 0
-786 -914 0
-786 817 818 0
786 -818 0
786 -817 914 0
-787 -789 0
787 788 789 0
-788 -789 0
-788 -817 0
788 816 817 0
-789 -916 0
-789 815 816 0
789 -816 0
789 -815 916 0
-790 -792 0
790 791 792 0
-791 -792 0
-791 -815 0
791 814 815 0
-792 -918 0
-792 813 814 0
792 -814 0
792 -813 918 0
-793 -795 0
793 794 795 0
-794 -795 0
-794 -813 0
794 812 813 0
-795 -920 0
-795 811 812 0
795 -812 0
795 -811 920 0
-796 -798 0
796 797 798 0
-797 -798 0
-797 -811 0
797 810 811 0
-798 -922 0
-798 809 810 0
798 -810 0
798 -809 922 0
-799 -801 0
799 800 801 0
-800 -801 0
-800 -809 0
800 808 809 0
-801 -924 0
-801 807 808 0
801 -808 0
801 -807 924 0
-802 -804 0
802 803 804 0
-803 -804 0
-803 -807 0
803 806 807 0
-804 -926 0
-804 -805 806 0
804 -806 0
804 805 926 0
-805 -926 0
-805 -929 0
805 -806 0
805 928 929 0
-806 -807 0
-806 -927 0
806 926 927 0
-807 -808 0
807 -924 0
-808 -809 0
-808 -925 0
808 924 925 0
-809 -810 0
809 -922 0
-810 -811 0
-810 -923 0
810 922 923 0
-811 -812 0
811 -920 0
-812 -813 0
-812 -921 0
812 920 921 0
-813 -814 0
813 -918 0
-814 -815 0
-814 -919 0
814 918 919 0
-815 -816 0
815 -916 0
-816 -817 0
-816 -917 0
816 916 917 0
-817 -818 0
817 -914 0
-818 -819 0
-818 -915 0
818 914 915 0
-819 -820 0
819 -912 0
-820 -821 0
-820 -913 0
820 912 913 0
-821 -822 0
821 -910 0
-822 -823 0
-822 -911 0
822 910 911 0
-823 -824 0
823 -908 0
-824 -825 0
-824 -909 0
824 908 909 0
-825 -826 0
825 -906 0
-826 -827 0
-826 -907 0
826 906 907 0
-827 -828 0
827 -904 0
-828 -829 0
-828 -905 0
828 904 905 0
-829 -830 0
829 -902 0
-830 -831 0
-830 -903 0
830 902 903 0
-831 -832 0
831 -900 0
-832 -833 0
-832 -901 0
832 900 901 0
-833 -834 0
833 -898 0
-834 -835 0
-834 -899 0
834 898 899 0
-835 -836 0
835 -896 0
-836 -837 0
-836 -897 0
836 896 897 0
-837 -838 0
837 -894 0
-838 -839 0
-838 -895 0
838 894 895 0
-839 -840 0
839 -892 0
-840 -841 0
-840 -893 0
840 892 893 0
-841 -842 0
841 -890 0
-842 -843 0
-842 -891 0
842 890 891 0
-843 -844 0
843 -888 0
-844 -845 0
-844 -889 0
844 888 889 0
-845 -846 0
845 -886 0
-846 -847 0
-846 -887 0
846 886 887 0
-847 -848 0
847 -884 0
-848 -849 0
-848 -885 0
848 884 885 0
-849 -850 0
849 -882 0
-850 -851 0
-850 -883 0
850 882 883 0
-851 -852 0
851 -880 0
-852 -853 0
-852 -881 0
852 880 881 0
-853 -854 0
853 -878 0
-854 -855 0
-854 -879 0
854 878 879 0
-855 -856 0
855 -876 0
-856 -857 0
-856 -877 0
856 876 877 0
-857 -858 0
857 -874 0
-858 -859 0
-858 -875 0
858 874 875 0
-859 -860 0
859 -872 0
-860 -861 0
-860 -873 0
860 872 873 0
-861 -862 0
861 -870 0
-862 -863 0
-862 -871 0
862 870 871 0
-863 -864 0
863 -868 0
-864 -865 0
-864 -869 0
864 868 869 0
-865 -867 866 0
-865 867 -866 0
865 -867 -866 0
865 867 866 0
-867 1081 0
867 -1081 0
-868 -869 0
-869 -930 0
869 930 0
-870 -871 0
-871 -933 0
871 933 0
-872 -873 0
-873 -936 0
873 936 0
-874 -875 0
-875 -939 0
875 939 0
-876 -877 0
-877 -942 0
877 942 0
-878 -879 0
-879 -945 0
879 945 0
-880 -881 0
-881 -948 0
881 948 0
-882 -883 0
-883 -951 0
883 951 0
-884 -885 0
-885 -954 0
885 954 0
-886 -887 0
-887 -957 0
887 957 0
-888 -889 0
-889 -960 0
889 960 0
-890 -891 0
-891 -963 0
891 963 0
-892 -893 0
-893 -966 0
893 966 0
-894 -895 0
-895 -969 0
895 969 0
-896 -897 0
-897 -972 0
897 972 0
-898 -899 0
-899 -975 0
899 975 0
-900 -901 0
-901 -978 0
901 978 0
-902 -903 0
-903 -981 0
903 981 0
-904 -905 0
-905 -984 0
905 984 0
-906 -907 0
-907 -987 0
907 987 0
-908 -909 0
-909 -990 0
909 990 0
-910 -911 0
-911 -993 0
911 993 0
-912 -913 0
-913 -996 0
913 996 0
-914 -915 0
-915 -999 0
915 999 0
-916 -917 0
-917 -1002 0
917 1002 0
-918 -919 0
-919 -1005 0
919 1005 0
-920 -921 0
-921 -1008 0
921 1008 0
-922 -923 0
-923 -1011 0
923 1011 0
-924 -925 0
-925 -1014 0
925 1014 0
-926 -927 0
-927 -1017 0
927 1017 0
-928 -929 0
-929 -1143 0
929 1143 0
-930 -932 0
930 932 0
-932 -1083 0
932 1083 0
-933 -935 0
933 935 0
-935 -1085 0
935 1085 0
-936 -938 0
936 938 0
-938 -1087 0
938 1087 0
-939 -941 0
939 941 0
-941 -1089 0
941 1089 0
-942 -944 0
942 944 0
-944 -1091 0
944 1091 0
-945 -947 0
945 947 0
-947 -1093 0
947 1093 0
-948 -950 0
948 950 0
-950 -1095 0
950 1095 0
-951 -953 0
951 953 0
-953 -1097 0
953 1097 0
-954 -956 0
954 956 0
-956 -1099 0
956 1099 0
-957 -959 0
957 959 0
-959 -1101 0
959 1101 0
-960 -962 0
960 962 0
-962 -1103 0
962 1103 0
-963 -965 0
963 965 0
-965 -1105 0
965 1105 0
-966 -968 0
966 968 0
-968 -1107 0
968 1107 0
-969 -971 0
969 971 0
-971 -1109 0
971 1109 0
-972 -974 0
972 974 0
-974 -1111 0
974 1111 0
-975 -977 0
975 977 0
-977 -1113 0
977 1113 0
-978 -980 0
978 980 0
-980 -1115 0
980 1115 0
-981 -983 0
981 983 0
-983 -1117 0
983 1117 0
-984 -986 0
984 986 0
-986 -1119 0
986 1119 0
-987 -989 0
987 989 0
-989 -1121 0
989 1121 0
-990 -992 0
990 992 0
-992 -1123 0
992 1123 0
-993 -995 0
993 995 0
-995 -1125 0
995 1125 0
-996 -998 0
996 998 0
-998 -1127 0
998 1127 0
-999 -1001 0
999 1001 0
-1001 -1129 0
1001 1129 0
-1002 -1004 0
1002 1004 0
-1004 -1131 0
1004 1131 0
-1005 -1007 0
1005 1007 0
-1007 -1133 0
1007 1133 0
-1008 -1010 0
1008 1010 0
-1010 -1135 0
1010 1135 0
-1011 -1013 0
1011 1013 0
-1013 -1137 0
1013 1137 0
-1014 -1016 0
1014 1016 0
-1016 -1139 0
1016 1139 0
-1017 -1019 0
1017 1019 0
-1019 -1141 0
1019 1141 0
-1081 1082 0
1081 -1082 0
-1082 -1145 0
1082 1084 1145 0
-1083 -1084 0
1083 1084 0
-1084 -1145 0
-1085 -1086 0
1085 1086 0
-1086 -1146 0
1086 -1145 1146 0
-1087 -1088 0
1087 1088 0
-1088 -1147 0
1088 -1146 1147 0
-1089 -1090 0
1089 1090 0
-1090 -1148 0
1090 -1147 1148 0
-1091 -1092 0
1091 1092 0
-1092 -1149 0
1092 -1148 1149 0
-1093 -1094 0
1093 1094 0
-1094 -1150 0
1094 -1149 1150 0
-1095 -1096 0
1095 1096 0
-1096 -1151 0
1096 -1150 1151 0
-1097 -1098 0
1097 1098 0
-1098 -1152 0
1098 -1151 1152 0
-1099 -1100 0
1099 1100 0
-1100 -1153 0
1100 -1152 1153 0
-1101 -1102 0
1101 1102 0
-1102 -1154 0
1102 -1153 1154 0
-1103 -1104 0
1103 1104 0
-1104 -1155 0
1104 -1154 1155 0
-1105 -1106 0
1105 1106 0
-1106 -1156 0
1106 -1155 1156 0
-1107 -1108 0
1107 1108 0
-1108 -1157 0
1108 -1156 1157 0
-1109 -1110 0
1109 1110 0
-1110 -1158 0
1110 -1157 1158 0
-1111 -1112 0
1111 1112 0
-1112 -1159 0
1112 -1158 1159 0
-1113 -1114 0
1113 1114 0
-1114 -1160 0
1114 -1159 1160 0
-1115 -1116 0
1115 1116 0
-1116 -1161 0
1116 -1160 1161 0
-1117 -1118 0
1117 1118 0
-1118 -1162 0
1118 -1161 1162 0
-1119 -1120 0
1119 1120 0
-1120 -1163 0
1120 -1162 1163 0
-1121 -1122 0
1121 1122 0
-1122 -1164 0
1122 -1163 1164 0
-1123 -1124 0
1123 1124 0
-1124 -1165 0
1124 -1164 1165 0
-1125 -1126 0
1125 1126 0
-1126 -1166 0
1126 -1165 1166 0
-1127 -1128 0
1127 1128 0
-1128 -1167 0
1128 -1166 1167 0
-1129 -1130 0
1129 1130 0
-1130 -1168 0
1130 -1167 1168 0
-1131 -1132 0
1131 1132 0
-1132 -1169 0
1132 -1168 1169 0
-1133 -1134 0
1133 1134 0
-1134 -1170 0
1134 -1169 1170 0
-1135 -1136 0
1135 1136 0
-1136 -1171 0
1136 -1170 1171 0
-1137 -1138 0
1137 1138 0
-1138 -1172 0
1138 -1171 1172 0
-1139 -1140 0
1139 1140 0
-1140 -1173 0
1140 -1172 1173 0
-1141 -1142 0
1141 1142 0
-1142 -1174 0
1142 -1173 1174 0
-1143 -1144 0
1143 1144 0
1144 -1174 0
1145 -1146 0
1146 -1147 0
1147 -1148 0
1148 -1149 0
1149 -1150 0
1150 -1151 0
1151 -1152 0
1152 -1153 0
1153 -1154 0
1154 -1155 0
1155 -1156 0
1156 -1157 0
1157 -1158 0
1158 -1159 0
1159 -1160 0
1160 -1161 0
1161 -1162 0
1162 -1163 0
1163 -1164 0
1164 -1165 0
1165 -1166 0
1166 -1167 0
1167 -1168 0
1168 -1169 0
1169 -1170 0
1170 -1171 0
1171 -1172 0
1172 -1173 0
1173 -1174 0
1176 -1177 0
1177 -1178 0
1178 -1179 0
1179 -1180 0
1180 -1181 0
1181 -1182 0
1182 -1183 0
1183 -1184 0
1184 -1185 0
1185 -1186 0
1186 -1187 0
1187 -1188 0
1188 -1189 0
1189 -1190 0
1190 -1191 0
1191 -1192 0
1192 -1193 0
1193 -1194 0
1194 -1195 0
1195 -1196 0
1196 -1197 0
1197 -1198 0
1198 -1199 0
1199 -1200 0
1200 -1201 0
1201 -1202 0
1202 -1203 0
1203 -1204 0
1204 -1205 0
